p cnf 45 154
3 1 0
3 -2 0
-1 2 -3 0
-4 5 -6 0
4 -5 -6 0
-4 -5 6 0
4 5 6 0
-8 -7 0
-8 -6 0
7 6 8 0
-9 6 0
-9 -8 0
-6 8 9 0
-10 -9 0
-10 -2 0
9 2 10 0
11 3 0
11 -10 0
-3 10 -11 0
-12 5 0
-12 1 0
-5 -1 12 0
14 -12 0
14 13 0
12 -13 -14 0
15 -11 0
15 14 0
11 -14 -15 0
18 17 0
18 4 0
-17 -4 -18 0
-16 18 -19 0
16 -18 -19 0
-16 -18 19 0
16 18 19 0
10 -20 -21 0
-10 20 -21 0
10 20 21 0
-10 -20 21 0
-22 -17 0
-22 -7 0
17 7 22 0
22 4 -23 0
-22 -4 -23 0
22 -4 23 0
-22 4 23 0
-24 -22 0
-24 -6 0
22 6 24 0
-23 -24 -25 0
23 24 -25 0
-23 24 25 0
23 -24 25 0
-26 -21 0
-26 25 0
21 -25 26 0
-6 2 -27 0
6 -2 -27 0
-6 -2 27 0
6 2 27 0
26 -27 -28 0
-26 27 -28 0
26 27 28 0
-26 -27 28 0
-29 19 0
-29 28 0
-19 -28 29 0
-30 15 0
-30 -29 0
-15 29 30 0
32 31 0
32 -6 0
-31 6 -32 0
32 24 -33 0
-32 -24 -33 0
32 -24 33 0
-32 24 33 0
-17 7 -34 0
17 -7 -34 0
-17 -7 34 0
17 7 34 0
35 -4 0
35 16 0
4 -16 -35 0
-36 35 0
-36 4 0
-35 -4 36 0
-37 -34 0
-37 36 0
34 -36 37 0
5 -9 -38 0
-5 9 -38 0
5 9 38 0
-5 -9 38 0
39 -37 0
39 -38 0
37 38 -39 0
10 -2 -40 0
-10 2 -40 0
10 2 40 0
-10 -2 40 0
-22 9 -41 0
22 -9 -41 0
-22 -9 41 0
22 9 41 0
42 -40 0
42 -41 0
40 41 -42 0
-39 42 -43 0
39 -42 -43 0
-39 -42 43 0
39 42 43 0
44 -33 0
44 -43 0
33 43 -44 0
45 -30 0
45 44 0
30 -44 -45 0
-21 44 -42 -6 0
-37 29 -38 43 0
-29 17 0
28 -8 12 36 0
4 39 17 34 -35 -21 0
25 -4 0
-7 -45 -23 -31 37 0
-19 -25 0
-31 22 11 -23 -7 0
3 0
-9 31 -5 7 2 0
27 39 45 -13 -23 44 0
-8 29 0
3 -21 0
-28 6 4 -14 -31 0
-44 12 0
41 43 0
-13 22 -36 -43 0
-9 -24 0
-26 11 -31 -28 -7 0
30 -45 -11 -12 6 0
20 -37 0
-38 -41 0
1 -42 -19 -25 0
33 -34 20 0
16 -9 0
10 7 1 0
-29 28 -37 25 32 0
-11 -19 7 2 44 0
-37 -12 44 -25 0
10 36 -30 4 38 34 0
-44 26 0
25 -1 -14 9 -41 32 0
39 -11 14 4 0
-30 -33 16 -24 0
45 0
